760.80 0
0 33 63 23 56 41 43 42 64 22 1 73 0
0 4 45 27 13 54 52 34 67 0
0 46 8 19 53 11 38 58 26 0
0 75 30 74 21 61 28 62 2 68 0
0 29 5 15 57 37 20 70 60 71 69 36 47 48 0
0 6 51 16 49 24 3 44 17 0
0 72 31 10 65 66 59 14 35 7 0
0 40 32 50 18 55 25 9 39 12 0
